20
0 1 0.48 0.33
0 2 0.16 0.16
0 3 0.38 0.38
0 4 0.74 0.36
0 5 0.26 0.26
0 6 0.24 0.24
0 7 0.3 0.3
0 8 0.38 0.2
0 9 0.88 0.34
0 10 0.63 0.33
0 11 0.47 0.18
0 12 0.44 0.28
0 13 0.3 0.3
0 14 0.34 0.34
0 15 0.43 0.18
0 16 0.36 0.36
0 17 0.74 0.28
0 18 0.43 0.38
0 19 0.4 0.4
1 2 0.7 0.28
1 3 0.23 0.23
1 4 0.16 0.16
1 5 0.5 0.08
1 6 0.41 0.41
1 7 0.1 0.1
1 8 0.44 0.18
1 9 0.64 0.16
1 10 0.31 0.31
1 11 0.18 0.16
1 12 0.14 0.14
1 13 0.23 0.23
1 14 0.16 0.16
1 15 0.2 0.2
1 16 0.46 0.16
1 17 0.05 0.05
1 18 0.31 0.17
1 19 0.75 0.32
2 3 0.27 0.27
2 4 0.67 0.2
2 5 0.28 0.28
2 6 0.5 0.4
2 7 0.31 0.18
2 8 0.29 0.29
2 9 0.52 0.36
2 10 0.4 0.4
2 11 0.3 0.3
2 12 0.2 0.2
2 13 0.38 0.38
2 14 0.29 0.29
2 15 0.31 0.31
2 16 0.24 0.24
2 17 0.56 0.29
2 18 0.45 0.45
2 19 0.77 0.44
3 4 0.16 0.07
3 5 0.31 0.31
3 6 0.71 0.27
3 7 0.5 0.26
3 8 0.37 0.37
3 9 0.25 0.25
3 10 0.68 0.38
3 11 0.68 0.38
3 12 0.52 0.37
3 13 0.46 0.46
3 14 0.39 0.39
3 15 0.6 0.39
3 16 0.54 0.32
3 17 0.51 0.28
3 18 0.4 0.4
3 19 0.48 0.28
4 5 0.24 0.24
4 6 0.55 0.34
4 7 0.66 0.19
4 8 0.3 0.3
4 9 0.32 0.32
4 10 0.31 0.31
4 11 0.31 0.31
4 12 0.68 0.3
4 13 0.8 0.39
4 14 0.32 0.32
4 15 0.32 0.32
4 16 0.25 0.25
4 17 0.21 0.21
4 18 0.33 0.33
4 19 0.32 0.24
5 6 0.33 0.33
5 7 0.63 0.15
5 8 0.56 0.23
5 9 0.2 0.08
5 10 0.41 0.23
5 11 0.57 0.08
5 12 0.17 0.17
5 13 0.66 0.2
5 14 0.52 0.08
5 15 0.52 0.25
5 16 0.62 0.21
5 17 0.52 0.13
5 18 0.81 0.2
5 19 0.32 0.32
6 7 0.69 0.46
6 8 0.63 0.4
6 9 0.34 0.34
6 10 0.56 0.44
6 11 0.55 0.34
6 12 0.3 0.3
6 13 0.22 0.22
6 14 0.74 0.39
6 15 0.38 0.38
6 16 0.44 0.44
6 17 0.64 0.39
6 18 0.72 0.53
6 19 0.16 0.16
7 8 0.2 0.2
7 9 0.23 0.23
7 10 0.58 0.22
7 11 0.42 0.12
7 12 0.56 0.24
7 13 0.32 0.24
7 14 0.34 0.18
7 15 0.22 0.22
7 16 0.5 0.06
7 17 0.15 0.15
7 18 0.27 0.27
7 19 0.54 0.34
8 9 0.64 0.31
8 10 0.26 0.26
8 11 0.62 0.23
8 12 0.76 0.21
8 13 0.55 0.26
8 14 0.15 0.15
8 15 0.02 0.02
8 16 0.64 0.26
8 17 0.23 0.23
8 18 0.52 0.26
8 19 0.27 0.27
9 10 0.61 0.31
9 11 0.16 0.16
9 12 0.56 0.25
9 13 0.28 0.28
9 14 0.16 0.16
9 15 0.33 0.33
9 16 0.29 0.29
9 17 0.21 0.21
9 18 0.28 0.28
9 19 0.58 0.4
10 11 0.16 0.15
10 12 0.46 0.35
10 13 0.22 0.22
10 14 0.31 0.31
10 15 0.54 0.28
10 16 0.16 0.16
10 17 0.53 0.36
10 18 0.4 0.4
10 19 0.54 0.34
11 12 0.62 0.2
11 13 0.12 0.12
11 14 0.54 0.16
11 15 0.68 0.25
11 16 0.38 0.18
11 17 0.21 0.21
11 18 0.49 0.28
11 19 0.32 0.32
12 13 0.26 0.26
12 14 0.28 0.09
12 15 0.23 0.23
12 16 0.51 0.3
12 17 0.09 0.09
12 18 0.68 0.27
12 19 0.33 0.33
13 14 0.66 0.25
13 15 0.8 0.28
13 16 0.41 0.24
13 17 0.18 0.18
13 18 0.54 0.36
13 19 0.67 0.38
14 15 0.17 0.17
14 16 0.24 0.24
14 17 0.79 0.18
14 18 0.67 0.28
14 19 0.4 0.4
15 16 0.28 0.28
15 17 0.25 0.25
15 18 0.78 0.24
15 19 0.64 0.29
16 17 0.21 0.21
16 18 0.24 0.24
16 19 0.28 0.28
17 18 0.18 0.18
17 19 0.37 0.37
18 19 0.46 0.46
